<?xml version = "1.0" encoding="UTF-8" standalone="yes"?>
<CPLEXSolution version="1.2">
 <header
   problemName="IloCplex"
   solutionName="p0"
   solutionIndex="-1"
   objectiveValue="6697651"
   solutionTypeValue="3"
   solutionTypeString="primal"
   solutionStatusValue="127"
   solutionStatusString="integer feasible solution"
   solutionMethodString="mip"
   primalFeasible="0"
   dualFeasible="0"
   writeLevel="3"/>
 <quality
   epInt="1.0000000000000001e-05"
   epRHS="9.9999999999999995e-07"
   maxIntInfeas="0"
   maxPrimalInfeas="0"
   maxX="1"
   maxSlack="1"/>
 <variables>
  <variable name="w0_7" index="7" value="1"/>
  <variable name="w1_7" index="21" value="1"/>
  <variable name="w2_7" index="35" value="1"/>
  <variable name="w3_7" index="49" value="1"/>
  <variable name="w4_7" index="63" value="1"/>
  <variable name="w5_7" index="77" value="1"/>
  <variable name="w6_7" index="91" value="1"/>
  <variable name="w7_7" index="105" value="1"/>
  <variable name="w8_7" index="119" value="1"/>
  <variable name="w13_7" index="189" value="1"/>
  <variable name="k0" index="196" value="1"/>
  <variable name="k1" index="197" value="1"/>
  <variable name="k2" index="198" value="1"/>
  <variable name="k3" index="199" value="1"/>
  <variable name="k4" index="200" value="1"/>
  <variable name="k5" index="201" value="1"/>
  <variable name="k6" index="202" value="1"/>
  <variable name="k7" index="203" value="1"/>
  <variable name="k8" index="204" value="1"/>
  <variable name="k13" index="209" value="1"/>
  <variable name="u7" index="217" value="1"/>
  <variable name="x0_186" index="410" value="1"/>
  <variable name="x1_135" index="559" value="1"/>
  <variable name="x2_138" index="762" value="1"/>
  <variable name="x3_27" index="851" value="1"/>
  <variable name="x4_179" index="1203" value="1"/>
  <variable name="x5_174" index="1398" value="1"/>
  <variable name="x6_37" index="1461" value="1"/>
  <variable name="x7_31" index="1655" value="1"/>
  <variable name="x8_24" index="1848" value="1"/>
  <variable name="x9_176" index="2200" value="1"/>
  <variable name="x10_195" index="2419" value="1"/>
  <variable name="x11_154" index="2578" value="1"/>
  <variable name="x12_187" index="2811" value="1"/>
  <variable name="x13_2" index="2826" value="1"/>
  <variable name="x14_66" index="3090" value="1"/>
  <variable name="x15_111" index="3335" value="1"/>
  <variable name="x16_62" index="3486" value="1"/>
  <variable name="x17_133" index="3757" value="1"/>
  <variable name="x18_145" index="3969" value="1"/>
  <variable name="x19_180" index="4204" value="1"/>
  <variable name="x20_33" index="4257" value="1"/>
  <variable name="x21_28" index="4452" value="1"/>
  <variable name="x22_87" index="4711" value="1"/>
  <variable name="x23_54" index="4878" value="1"/>
  <variable name="x24_107" index="5131" value="1"/>
  <variable name="x25_144" index="5368" value="1"/>
  <variable name="x26_55" index="5479" value="1"/>
  <variable name="x27_85" index="5709" value="1"/>
  <variable name="x28_57" index="5881" value="1"/>
  <variable name="x29_84" index="6108" value="1"/>
  <variable name="x30_92" index="6316" value="1"/>
  <variable name="x31_116" index="6540" value="1"/>
  <variable name="x32_148" index="6772" value="1"/>
  <variable name="x33_193" index="7017" value="1"/>
  <variable name="x34_141" index="7165" value="1"/>
  <variable name="x35_110" index="7334" value="1"/>
  <variable name="x36_121" index="7545" value="1"/>
  <variable name="x37_104" index="7728" value="1"/>
  <variable name="x38_41" index="7865" value="1"/>
  <variable name="x39_151" index="8175" value="1"/>
  <variable name="x40_49" index="8273" value="1"/>
  <variable name="x41_165" index="8589" value="1"/>
  <variable name="x42_96" index="8720" value="1"/>
  <variable name="x43_13" index="8837" value="1"/>
  <variable name="x44_14" index="9038" value="1"/>
  <variable name="x45_191" index="9415" value="1"/>
  <variable name="x46_21" index="9445" value="1"/>
  <variable name="x47_30" index="9654" value="1"/>
  <variable name="x48_8" index="9832" value="1"/>
  <variable name="x49_78" index="10102" value="1"/>
  <variable name="x50_137" index="10361" value="1"/>
  <variable name="x51_39" index="10463" value="1"/>
  <variable name="x52_101" index="10725" value="1"/>
  <variable name="x53_199" index="11023" value="1"/>
  <variable name="x54_61" index="11085" value="1"/>
  <variable name="x55_128" index="11352" value="1"/>
  <variable name="x56_18" index="11442" value="1"/>
  <variable name="x57_3" index="11627" value="1"/>
  <variable name="x58_122" index="11946" value="1"/>
  <variable name="x59_7" index="12031" value="1"/>
  <variable name="x60_38" index="12262" value="1"/>
  <variable name="x61_158" index="12582" value="1"/>
  <variable name="x62_123" index="12747" value="1"/>
  <variable name="x63_167" index="12991" value="1"/>
  <variable name="x64_16" index="13040" value="1"/>
  <variable name="x65_36" index="13260" value="1"/>
  <variable name="x66_81" index="13505" value="1"/>
  <variable name="x67_0" index="13624" value="1"/>
  <variable name="x68_56" index="13880" value="1"/>
  <variable name="x69_149" index="14173" value="1"/>
  <variable name="x70_93" index="14317" value="1"/>
  <variable name="x71_113" index="14537" value="1"/>
  <variable name="x72_168" index="14792" value="1"/>
  <variable name="x73_72" index="14896" value="1"/>
  <variable name="x74_118" index="15142" value="1"/>
  <variable name="x75_124" index="15348" value="1"/>
  <variable name="x76_25" index="15449" value="1"/>
  <variable name="x77_94" index="15718" value="1"/>
  <variable name="x78_109" index="15933" value="1"/>
  <variable name="x79_6" index="16030" value="1"/>
  <variable name="x80_132" index="16356" value="1"/>
  <variable name="x81_136" index="16560" value="1"/>
  <variable name="x82_169" index="16793" value="1"/>
  <variable name="x83_155" index="16979" value="1"/>
  <variable name="x84_190" index="17214" value="1"/>
  <variable name="x85_182" index="17406" value="1"/>
  <variable name="x86_120" index="17544" value="1"/>
  <variable name="x87_53" index="17677" value="1"/>
  <variable name="x88_19" index="17843" value="1"/>
  <variable name="x89_40" index="18064" value="1"/>
  <variable name="x90_112" index="18336" value="1"/>
  <variable name="x91_196" index="18620" value="1"/>
  <variable name="x92_97" index="18721" value="1"/>
  <variable name="x93_91" index="18915" value="1"/>
  <variable name="x94_183" index="19207" value="1"/>
  <variable name="x95_74" index="19298" value="1"/>
  <variable name="x96_140" index="19564" value="1"/>
  <variable name="x97_117" index="19741" value="1"/>
  <variable name="x98_173" index="19997" value="1"/>
  <variable name="x99_82" index="20106" value="1"/>
  <variable name="x100_161" index="20385" value="1"/>
  <variable name="x101_103" index="20527" value="1"/>
  <variable name="x102_64" index="20688" value="1"/>
  <variable name="x103_100" index="20924" value="1"/>
  <variable name="x104_29" index="21053" value="1"/>
  <variable name="x105_20" index="21244" value="1"/>
  <variable name="x106_114" index="21538" value="1"/>
  <variable name="x107_51" index="21675" value="1"/>
  <variable name="x108_26" index="21850" value="1"/>
  <variable name="x109_83" index="22107" value="1"/>
  <variable name="x110_125" index="22349" value="1"/>
  <variable name="x111_163" index="22587" value="1"/>
  <variable name="x112_12" index="22636" value="1"/>
  <variable name="x113_188" index="23012" value="1"/>
  <variable name="x114_71" index="23095" value="1"/>
  <variable name="x115_79" index="23303" value="1"/>
  <variable name="x116_46" index="23470" value="1"/>
  <variable name="x117_58" index="23682" value="1"/>
  <variable name="x118_164" index="23988" value="1"/>
  <variable name="x119_142" index="24166" value="1"/>
  <variable name="x120_23" index="24247" value="1"/>
  <variable name="x121_150" index="24574" value="1"/>
  <variable name="x122_98" index="24722" value="1"/>
  <variable name="x123_129" index="24953" value="1"/>
  <variable name="x124_90" index="25114" value="1"/>
  <variable name="x125_131" index="25355" value="1"/>
  <variable name="x126_181" index="25605" value="1"/>
  <variable name="x127_143" index="25767" value="1"/>
  <variable name="x128_42" index="25866" value="1"/>
  <variable name="x129_189" index="26213" value="1"/>
  <variable name="x130_198" index="26422" value="1"/>
  <variable name="x131_156" index="26580" value="1"/>
  <variable name="x132_184" index="26808" value="1"/>
  <variable name="x133_43" index="26867" value="1"/>
  <variable name="x134_126" index="27150" value="1"/>
  <variable name="x135_86" index="27310" value="1"/>
  <variable name="x136_89" index="27513" value="1"/>
  <variable name="x137_32" index="27656" value="1"/>
  <variable name="x138_65" index="27889" value="1"/>
  <variable name="x139_108" index="28132" value="1"/>
  <variable name="x140_5" index="28229" value="1"/>
  <variable name="x141_178" index="28602" value="1"/>
  <variable name="x142_73" index="28697" value="1"/>
  <variable name="x143_153" index="28977" value="1"/>
  <variable name="x144_99" index="29123" value="1"/>
  <variable name="x145_59" index="29283" value="1"/>
  <variable name="x146_162" index="29586" value="1"/>
  <variable name="x147_160" index="29784" value="1"/>
  <variable name="x148_34" index="29858" value="1"/>
  <variable name="x149_119" index="30143" value="1"/>
  <variable name="x150_17" index="30241" value="1"/>
  <variable name="x151_105" index="30529" value="1"/>
  <variable name="x152_152" index="30776" value="1"/>
  <variable name="x153_192" index="31016" value="1"/>
  <variable name="x154_11" index="31035" value="1"/>
  <variable name="x155_67" index="31291" value="1"/>
  <variable name="x156_68" index="31492" value="1"/>
  <variable name="x157_171" index="31795" value="1"/>
  <variable name="x158_75" index="31899" value="1"/>
  <variable name="x159_22" index="32046" value="1"/>
  <variable name="x160_50" index="32274" value="1"/>
  <variable name="x161_106" index="32530" value="1"/>
  <variable name="x162_166" index="32790" value="1"/>
  <variable name="x163_35" index="32859" value="1"/>
  <variable name="x164_80" index="33104" value="1"/>
  <variable name="x165_77" index="33301" value="1"/>
  <variable name="x166_175" index="33599" value="1"/>
  <variable name="x167_76" index="33700" value="1"/>
  <variable name="x168_47" index="33871" value="1"/>
  <variable name="x169_185" index="34209" value="1"/>
  <variable name="x170_197" index="34421" value="1"/>
  <variable name="x171_15" index="34439" value="1"/>
  <variable name="x172_95" index="34719" value="1"/>
  <variable name="x173_146" index="34970" value="1"/>
  <variable name="x174_172" index="35196" value="1"/>
  <variable name="x175_177" index="35401" value="1"/>
  <variable name="x176_159" index="35583" value="1"/>
  <variable name="x177_45" index="35669" value="1"/>
  <variable name="x178_115" index="35939" value="1"/>
  <variable name="x179_170" index="36194" value="1"/>
  <variable name="x180_70" index="36294" value="1"/>
  <variable name="x181_69" index="36493" value="1"/>
  <variable name="x182_139" index="36763" value="1"/>
  <variable name="x183_134" index="36958" value="1"/>
  <variable name="x184_127" index="37151" value="1"/>
  <variable name="x185_88" index="37312" value="1"/>
  <variable name="x186_52" index="37476" value="1"/>
  <variable name="x187_102" index="37726" value="1"/>
  <variable name="x188_1" index="37825" value="1"/>
  <variable name="x189_9" index="38033" value="1"/>
  <variable name="x190_44" index="38268" value="1"/>
  <variable name="x191_157" index="38581" value="1"/>
  <variable name="x192_147" index="38771" value="1"/>
  <variable name="x193_4" index="38828" value="1"/>
  <variable name="x194_63" index="39087" value="1"/>
  <variable name="x195_10" index="39234" value="1"/>
  <variable name="x196_60" index="39484" value="1"/>
  <variable name="x197_48" index="39672" value="1"/>
  <variable name="x198_130" index="39954" value="1"/>
  <variable name="x199_194" index="40218" value="1"/>
 </variables>
</CPLEXSolution>
